p cnf 150 30
x -2 4 -5 7 -12 13 15 -16 18 -19 20 -23 24 -25 28 33 -35 36 -38 -40 42 -44 45 -48 49 -50 -51 52 -54 56 57 -60 -61 -63 65 -67 -68 69 70 73 74 75 -76 78 -81 -82 83 90 92 -94 97 -101 -103 104 -105 106 108 -109 -112 -114 -115 -116 -119 123 124 125 126 -127 128 132 133 -134 135 137 -143 -145 -146 -147 148 149 150 0
x -1 -3 4 8 11 -12 14 15 18 -19 -20 -22 -25 -28 30 -33 35 36 -37 38 42 43 -53 -56 58 59 -60 -61 62 63 -67 -68 70 -71 75 -76 -78 -81 82 83 -85 87 88 89 -90 93 -96 98 -104 -105 -110 -111 -112 115 -117 -118 -119 -120 121 122 123 -124 127 130 132 134 139 140 146 -148 0
x -1 -7 -8 9 -10 -11 12 -14 16 17 -18 -19 21 22 23 -24 25 27 28 29 -32 33 -37 38 -41 -42 44 -47 -48 -49 50 -53 -55 57 58 60 -61 -62 66 -67 68 -71 73 -74 -76 -77 -79 -83 -86 -89 91 -92 94 95 96 97 -98 -100 -102 103 104 -105 -107 112 113 -114 115 -118 -119 -120 121 122 125 -127 -128 -134 135 140 -142 143 144 146 147 -148 -149 0
x -1 2 4 -5 6 -10 -11 15 16 -17 18 -20 22 24 25 28 -30 31 -33 36 -37 -38 -41 -42 43 46 50 51 55 57 -62 -63 -66 -69 72 75 76 79 87 -88 91 97 98 -99 100 -101 -102 -103 105 106 108 112 -116 120 -122 -123 -124 -126 -129 131 -133 134 136 137 -138 141 -143 145 148 149 -150 0
x -1 -2 3 5 -6 -7 -8 -17 22 23 -28 -29 33 -35 36 -39 -40 -41 -42 -45 46 48 51 -52 -58 -59 61 -64 66 68 70 -71 73 76 77 -82 89 90 92 93 -96 99 -100 101 102 103 -105 107 109 111 112 -113 114 -115 -117 -118 -119 -120 -121 -122 123 124 -125 -126 128 129 -131 -132 133 -134 141 -146 -147 0
x -3 4 6 9 -10 -13 14 -15 16 -19 21 -23 24 26 -30 -31 -32 34 36 37 39 40 -43 -45 -46 47 -49 -51 52 -53 58 59 -60 66 68 71 74 75 79 81 -82 -83 -86 -88 -90 -91 94 -95 -96 97 -98 -102 105 108 110 -111 -113 -115 116 117 120 -122 -123 -125 -127 129 130 132 134 -137 -138 -139 141 -142 147 148 -150 0
x 1 4 6 7 8 -10 -13 14 -15 -16 -20 -21 -22 -23 24 -25 -31 -35 36 -39 -42 43 -45 46 47 48 50 52 55 -56 -57 -58 -61 -64 -66 -71 73 -74 76 -77 78 81 84 -90 92 94 -97 101 102 -103 -105 107 109 -110 111 -113 114 121 -122 124 127 -128 130 131 -132 -133 135 137 -140 141 146 -147 0
x -3 -5 7 8 13 -14 15 16 17 -19 21 -22 -23 -24 25 -27 28 -29 -30 31 35 37 -39 -40 42 44 -45 -46 -47 49 -52 -53 -55 -58 60 -61 -64 -66 67 69 70 71 -74 78 79 -82 -84 90 -92 -93 94 -95 97 -100 101 -107 -108 113 114 117 118 119 121 -122 125 126 128 129 131 -133 -134 -138 139 140 141 142 -144 -146 -147 -148 149 150 0
x 1 4 6 7 9 -10 -18 -24 -26 -27 28 32 36 37 39 41 -42 44 -47 48 -49 50 51 52 -56 -57 58 59 60 63 -65 -66 -69 -72 73 -74 -75 -77 78 -81 82 86 -87 -88 89 90 92 -94 95 -96 98 -99 100 101 102 -103 -104 -105 106 109 110 111 -113 114 117 -121 -122 -128 129 -133 -135 -136 137 139 -141 147 -148 -150 0
x 3 5 6 -8 13 14 -16 -18 24 -25 -27 -31 33 -34 -39 -41 -42 -45 47 51 52 -54 -55 -56 59 -60 63 -65 -70 -76 -77 -80 -82 -88 90 92 93 -94 95 -98 -99 -100 -103 -104 105 -107 -109 112 -114 -116 117 118 -119 121 122 123 -124 -125 -126 129 130 -132 135 137 138 -139 141 -142 -144 147 -148 -149 0
x 2 3 -4 -5 -9 13 16 -17 -20 21 23 -25 29 30 -34 -36 -38 -39 -40 -41 -42 -43 44 45 -46 -47 -48 -51 -52 53 62 -63 65 69 -70 -71 -72 -73 74 76 -77 -78 79 -80 81 82 83 86 87 88 -89 90 92 -94 -95 -96 98 -99 103 -104 -106 -110 -111 116 -120 -123 126 -127 -128 -129 -131 132 133 -135 -136 -139 140 -143 144 145 148 150 0
x 1 -3 6 7 -8 -10 -11 -12 -17 18 20 21 -23 -25 -28 -29 32 35 -38 -39 40 43 48 -49 -51 -52 -53 -58 -61 -66 68 69 -71 -72 79 -80 -82 85 -87 -89 -91 96 -100 -101 102 -103 106 -108 -112 -114 -115 117 -118 -119 120 -121 -122 -123 -126 127 128 129 -130 132 133 -134 135 137 139 -141 -145 -146 150 0
x -1 -2 3 5 8 -11 -13 14 15 16 -17 23 24 -25 -26 -27 -28 -31 -32 -36 -38 42 -43 44 46 47 48 49 50 -54 -56 -62 64 71 -73 -75 76 -77 78 -81 -90 -91 -92 -98 -101 103 -104 105 -109 110 -113 115 -118 -121 125 126 129 135 137 138 -140 -142 144 147 148 -150 0
x 2 3 -4 5 6 -9 -10 -11 12 16 -17 18 22 -23 24 25 -26 -27 34 35 -37 39 -40 41 -43 -48 50 -52 54 -60 -61 -62 66 67 68 -74 -75 -76 -81 -83 -85 -87 -88 89 90 92 -94 96 97 -98 99 100 103 104 -106 107 111 115 118 -119 -121 -123 -124 125 126 -128 -131 133 135 -136 -141 -143 144 -145 -146 -148 0
x 1 -2 3 -7 10 11 19 24 25 -26 28 -30 31 -32 -37 -38 41 42 44 45 46 -52 -53 55 56 59 61 -62 64 67 -68 -69 70 -74 77 -80 -83 84 85 86 90 -93 94 -97 -99 -101 -104 -105 106 107 -108 109 -110 -112 -115 118 -120 -122 -124 125 -126 130 -132 -133 137 -140 142 -144 -145 -146 -147 0
x 3 4 -5 11 -17 18 20 -22 23 -24 -28 29 34 -37 -38 -42 -44 48 -49 -55 -57 58 60 61 -62 -67 -68 70 71 73 77 -78 79 -82 85 86 -90 -91 92 93 -94 95 -96 97 -98 100 101 102 103 -104 -105 109 -110 113 -114 -115 -116 -118 -123 -125 -126 -131 -133 134 -136 -138 139 142 143 144 145 150 0
x -1 -5 6 8 -9 10 -11 13 -14 -16 19 -20 25 26 -31 -32 -34 -35 36 -39 -40 -42 -43 50 52 55 59 -60 61 62 70 71 73 74 -76 -78 83 -85 -86 -87 89 -90 -91 -92 97 -98 99 103 104 106 -108 -112 -115 -117 118 119 -125 -126 -131 -133 134 -135 -138 -139 -143 144 0
x -1 -2 -8 10 -13 -15 -17 18 -19 21 23 28 -30 31 32 33 34 -35 36 37 38 -43 -44 45 -47 49 -50 51 -52 54 -56 -59 60 -61 62 -63 66 67 -68 -70 -75 -80 81 83 84 -86 89 -90 -91 93 -99 -102 -104 106 -108 -109 -110 111 -112 -113 -116 -117 122 127 -129 130 -132 -134 137 138 -140 -141 -142 143 -144 -146 -148 -149 0
x 2 -4 -8 10 -12 -13 17 -19 -20 21 22 -23 27 28 -29 -30 32 36 -43 45 -48 49 -54 -55 56 -60 -61 -64 -67 -69 71 -72 -74 -76 78 79 87 88 -89 90 -91 -93 -94 -97 -98 100 -101 103 -108 112 114 118 -119 121 124 -125 -126 127 -128 129 130 134 -136 137 140 -142 143 0
x -1 -4 -5 6 7 8 -9 -10 -12 22 27 -28 -33 -35 -36 39 -40 41 -42 -43 44 -45 46 49 50 51 53 55 59 61 -62 63 -64 65 66 -68 69 -73 75 -76 79 80 -82 90 94 -96 97 101 -105 106 -108 -110 -112 113 114 -118 -119 125 -126 -129 -131 132 -133 -135 136 -138 -140 141 -143 -145 -146 -148 -149 0
x 1 3 -4 -5 8 9 10 14 17 18 19 -20 -22 -24 -28 29 -30 -31 -32 -35 -37 38 -40 41 43 -47 49 50 -51 -52 -54 -57 -58 -60 -61 62 64 -65 67 -68 69 -70 71 -72 73 75 76 77 81 82 -84 86 -88 89 90 91 92 -93 -96 100 -101 102 -103 -105 108 -109 111 112 113 114 116 -117 118 119 123 -125 -127 -128 -129 -133 -136 -137 -138 -139 143 -145 148 150 0
x 1 -3 -4 -6 -7 9 10 14 -15 16 18 -22 -23 -26 -28 -30 -31 33 35 36 38 39 -40 -41 46 47 49 -51 52 53 55 56 57 59 -63 66 -67 -68 72 74 -81 -83 86 87 -88 91 -95 96 98 -99 100 -102 103 -105 108 110 112 114 115 -116 -117 119 121 -122 -124 127 130 133 134 -136 -137 142 143 -148 -149 -150 0
x 1 2 -6 -11 14 15 -16 17 20 -24 -27 28 29 -32 -33 -34 -38 43 44 -48 50 -51 -52 -54 -55 -58 60 61 -65 66 67 -69 -70 -71 -74 -75 76 -81 -82 88 89 91 -92 -96 -100 -103 104 105 -107 -108 -109 -110 -111 -112 -113 -114 115 -116 -117 118 120 124 126 -127 -128 -129 130 131 -134 -136 137 -139 -140 -141 142 143 -144 149 0
x 1 2 -5 -8 9 -10 -12 13 15 -18 19 20 -22 -24 -26 -32 -34 -35 -36 -38 -40 -43 -46 47 48 -50 51 -52 55 -56 59 -61 -62 66 67 -70 -71 72 -73 -75 76 -77 79 80 -82 92 98 102 103 -104 -105 -110 -112 114 -116 -118 119 121 123 -124 125 -127 135 -139 -141 142 146 149 -150 0
x 6 -7 -11 12 -13 -15 16 17 -19 -20 22 24 -26 -27 28 -29 -31 -37 38 45 46 49 -51 -54 56 59 60 -62 -65 -66 67 -75 -77 -78 -81 -83 -84 -86 87 -91 92 94 100 103 110 115 116 118 -119 -121 123 126 127 -130 131 -132 -133 134 -135 136 138 140 -147 -148 -149 150 0
x -1 -4 5 6 8 9 -10 -12 -14 -17 -18 -19 -20 23 24 26 -31 -32 34 -35 -36 39 -40 41 -42 -43 44 -45 -46 -50 -52 -56 58 -61 -62 -63 -64 -68 -69 -70 -72 73 74 76 -78 -80 -84 86 -87 90 -91 93 -97 98 99 -100 -101 104 -105 -107 -108 -109 111 -113 114 -115 116 -117 -118 -119 -121 124 126 -134 -135 136 -140 144 148 149 0
x -1 -4 5 -9 -14 17 18 -19 -20 -22 23 -27 29 -30 32 33 34 -35 36 41 42 44 45 46 -47 52 53 -54 55 58 -59 -61 -62 -65 -66 -69 -70 -72 74 77 78 -81 83 -85 88 -89 92 -93 95 -96 98 -102 104 105 106 108 109 -112 113 117 -120 -122 124 -125 -131 -132 -133 134 -135 -138 -139 140 141 -144 -147 148 0
x 2 3 -7 -8 9 11 12 -17 -18 -22 -25 -28 29 31 -32 -34 -39 41 -42 -44 -45 -46 51 53 -54 55 56 64 65 -67 69 -70 -71 -73 76 83 84 85 86 -89 90 -91 93 -94 97 106 -110 111 -112 -114 115 -116 118 -119 120 -121 -122 123 -125 126 127 -129 133 -134 137 140 141 -143 -145 147 -149 150 0
x 3 5 6 -9 11 -13 14 -17 18 20 -23 -32 -33 -34 -35 -37 -38 -41 -42 43 -46 -50 51 53 54 -55 -56 59 61 63 64 -65 75 78 -80 82 -85 89 -90 -96 97 98 -99 -100 -101 102 103 -106 -108 109 -110 -113 -116 119 -122 -124 -127 -130 -134 136 137 -138 139 -140 -142 -144 145 146 -149 -150 0
x -2 4 -5 -6 7 -15 18 -19 23 -24 25 -26 30 31 35 38 -39 -40 41 42 43 -47 48 -49 58 59 64 -65 66 -71 -73 -75 -78 -79 -80 81 82 -83 -84 85 -89 91 92 -93 -96 97 99 -100 -104 105 -106 -112 113 114 117 -118 120 -122 -125 133 -134 -135 139 -144 -145 149 -150 0
g -60